nj = 6;
nm = 4;
pidle =  [2 1 1 2];
Ops =  {<1 1 2 12 0 5 4> <1 2 3 21 0 2 3>
     <1 3 4 11 1 3 4>
     <2 1 2 12 0 5 3>
     <2 2 3 21 0 2 5>
     <2 3 4 11 1 3 4>
     <3 1 2 12 0 5 4>
     <3 2 3 21 0 2 4>
     <3 3 4 11 1 3 5>
     <4 1 2 12 0 5 3>
     <4 2 3 21 0 2 5>
     <4 3 4 11 1 3 3>
     <5 1 1 10 0 5 5>
     <5 2 2 14 0 1 3>
     <5 3 3 18 0 2 5>
     <5 4 4 9 1 3 3>
     <6 1 1 10 0 5 4>
     <6 2 2 14 0 1 4>
     <6 3 3 18 0 2 4>
     <6 4 4 9 1 3 3>};
